69 1 51 9 81 79 3 77 28 
2 57 15 43 14 44 38 86 17 84 60 89 
76 68 29 24 80 12 53 
6 96 99 98 100 91 16 61 85 59 94 
95 92 97 87 13 58 
40 73 75 56 23 67 39 4 55 25 54 26 
52 18 82 48 7 88 62 10 32 90 63 11 19 64 49 36 47 46 8 45 83 5 93 37 42 41 22 74 72 21 27 31 70 30 20 66 65 71 35 34 78 33 50 
